StringID   Type       x          y          demand     ReadyTime  DueDate    ServiceTime 
D0        d         40.0      50.0      0.0       0.0       1236.0    0.0       
S1        f         73.0      52.0      0.0       0.0       1236.0    0.0       
C2        c         45.0      70.0      30.0      499.0     553.0     90.0      
S3        f         55.0      79.0      0.0       0.0       1236.0    0.0       
C3        c         42.0      66.0      10.0      863.0     931.0     90.0      
S5        f         32.0      80.0      0.0       0.0       1236.0    0.0       
C5        c         42.0      65.0      10.0      950.0     1026.0    90.0      
C6        c         40.0      69.0      20.0      683.0     741.0     90.0      
S7        f         23.0      80.0      0.0       0.0       1236.0    0.0       
C7        c         40.0      66.0      20.0      774.0     836.0     90.0      
C8        c         38.0      68.0      20.0      1057.0    1125.0    90.0      
S9        f         18.0      58.0      0.0       0.0       1236.0    0.0       
C9        c         38.0      70.0      10.0      958.0     1040.0    90.0      
S10       f         1.0       56.0      0.0       0.0       1236.0    0.0       
C11       c         35.0      69.0      10.0      869.0     941.0     90.0      
S13       f         26.0      37.0      0.0       0.0       1236.0    0.0       
S14       f         28.0      13.0      0.0       0.0       1236.0    0.0       
C14       c         22.0      85.0      10.0      263.0     327.0     90.0      
C16       c         20.0      85.0      40.0      358.0     416.0     90.0      
C17       c         18.0      75.0      20.0      633.0     711.0     90.0      
C20       c         30.0      50.0      10.0      10.0      70.0      90.0      
C28       c         23.0      55.0      20.0      438.0     510.0     90.0      
C29       c         20.0      50.0      10.0      174.0     226.0     90.0      
C30       c         20.0      55.0      10.0      355.0     407.0     90.0      
C39       c         0.0       45.0      20.0      374.0     440.0     90.0      
C43       c         33.0      35.0      10.0      789.0     849.0     90.0      
C44       c         32.0      30.0      10.0      325.0     387.0     90.0      
C46       c         30.0      32.0      30.0      601.0     665.0     90.0      
C47       c         30.0      35.0      10.0      698.0     754.0     90.0      
C49       c         28.0      35.0      10.0      1011.0    1073.0    90.0      
C51       c         25.0      30.0      10.0      823.0     889.0     90.0      
C53       c         44.0      5.0       20.0      437.0     511.0     90.0      
C54       c         42.0      10.0      40.0      810.0     868.0     90.0      
C56       c         40.0      5.0       30.0      350.0     410.0     90.0      
C69       c         45.0      35.0      10.0      448.0     516.0     90.0      
C73       c         92.0      30.0      10.0      287.0     361.0     90.0      
C85       c         68.0      60.0      30.0      737.0     809.0     90.0      
C88       c         65.0      60.0      30.0      837.0     895.0     90.0      
C94       c         65.0      82.0      10.0      367.0     423.0     90.0      

StringID   Type       x          y          demand     ReadyTime  DueDate    ServiceTime 
Q xxxxxxxxxxxxxxxxxxxx /79.69/
C xxxxxxxxxxxxxxxxxxxxx /200.0/
r xxxxxxxxxxxxxx /1.0/
g xxxxxxxxxxxxxxxxxxxxxxx /3.39/
v xxxxxxxxxxxxxxx /1.0/
